(set-info :source Astral)
(set-info :status sat)

(declare-sort Loc 0)
(declare-heap (Loc Loc))

(assert
  (sep
    (not sep.emp)
    (not sep.emp)
    (not sep.emp)
    (not sep.emp)
    (not sep.emp)
    (not sep.emp)
    (not sep.emp)
    (not sep.emp)
    (not sep.emp)
    (not sep.emp)
    (not sep.emp)
    (not sep.emp)
    (not sep.emp)
    (not sep.emp)
    (not sep.emp)
    (not sep.emp)
    (not sep.emp)
    (not sep.emp)
    (not sep.emp)
    (not sep.emp)
    (not sep.emp)
    (not sep.emp)
    (not sep.emp)
    (not sep.emp)
    (not sep.emp)
    (not sep.emp)
    (not sep.emp)
    (not sep.emp)
    (not sep.emp)
    (not sep.emp)
    (not sep.emp)
    (not sep.emp)
    (not sep.emp)
    (not sep.emp)
    (not sep.emp)
    (not sep.emp)
    (not sep.emp)
    (not sep.emp)
  )
)

(check-sat)